10
0 35 68 95 37 94 22 31 37 81 
16 0 21 48 56 13 22 41 76 76 
89 63 0 6 94 85 2 47 94 74 
3 4 54 0 39 78 78 18 58 71 
4 29 20 43 0 4 58 19 23 78 
59 57 77 14 28 0 59 26 73 99 
58 43 11 40 80 60 0 20 66 67 
30 27 31 5 96 86 53 0 15 45 
83 85 8 52 38 84 44 23 0 56 
87 94 68 59 100 1 49 8 35 0 
